(set-option :produce-models true)
(set-logic QF_UF)
(declare-fun p35() Bool)
(declare-fun p84() Bool)
(declare-fun p87() Bool)
(declare-fun p7() Bool)
(declare-fun p79() Bool)
(declare-fun p0() Bool)
(declare-fun p64() Bool)
(declare-fun p57() Bool)
(declare-fun p6() Bool)
(declare-fun p32() Bool)
(declare-fun p4() Bool)
(declare-fun p22() Bool)
(declare-fun p16() Bool)
(declare-fun p60() Bool)
(declare-fun p2() Bool)
(declare-fun p31() Bool)
(declare-fun p36() Bool)
(declare-fun p34() Bool)
(declare-fun p68() Bool)
(declare-fun p81() Bool)
(declare-fun p23() Bool)
(declare-fun p20() Bool)
(declare-fun p17() Bool)
(declare-fun p33() Bool)
(declare-fun p45() Bool)
(declare-fun p28() Bool)
(declare-fun p85() Bool)
(declare-fun p38() Bool)
(declare-fun p50() Bool)
(declare-fun p75() Bool)
(declare-fun p46() Bool)
(declare-fun p52() Bool)
(declare-fun p89() Bool)
(declare-fun p80() Bool)
(declare-fun p70() Bool)
(declare-fun p74() Bool)
(declare-fun p37() Bool)
(declare-fun p26() Bool)
(declare-fun p44() Bool)
(declare-fun p43() Bool)
(declare-fun p30() Bool)
(declare-fun p3() Bool)
(declare-fun p25() Bool)
(declare-fun p63() Bool)
(declare-fun p11() Bool)
(declare-fun p71() Bool)
(declare-fun p69() Bool)
(declare-fun p42() Bool)
(declare-fun p15() Bool)
(declare-fun p88() Bool)
(declare-fun p56() Bool)
(declare-fun p67() Bool)
(declare-fun p13() Bool)
(declare-fun p59() Bool)
(declare-fun p66() Bool)
(declare-fun p10() Bool)
(declare-fun p82() Bool)
(declare-fun p51() Bool)
(declare-fun p77() Bool)
(declare-fun p47() Bool)
(declare-fun p39() Bool)
(declare-fun p18() Bool)
(declare-fun p41() Bool)
(declare-fun p12() Bool)
(declare-fun p76() Bool)
(declare-fun p54() Bool)
(declare-fun p48() Bool)
(declare-fun p83() Bool)
(declare-fun p73() Bool)
(declare-fun p86() Bool)
(declare-fun p24() Bool)
(declare-fun p55() Bool)
(declare-fun p53() Bool)
(declare-fun p61() Bool)
(declare-fun p49() Bool)
(declare-fun p5() Bool)
(declare-fun p78() Bool)
(declare-fun p1() Bool)
(declare-fun p14() Bool)
(declare-fun p72() Bool)
(declare-fun p21() Bool)
(declare-fun p65() Bool)
(declare-fun p8() Bool)
(declare-fun p58() Bool)
(declare-fun p9() Bool)
(declare-fun p27() Bool)
(declare-fun p19() Bool)
(declare-fun p29() Bool)
(declare-fun p62() Bool)
(declare-fun p40() Bool)
(assert
(and (or p35 (not p84) p87) (or (not p7) p79 p0) (or (not p64) p57 p6) (or (not p32) p7 (not p4)) (or p22 (not p16) (not p60)) (or (not p2) p31 p36) (or p34 p22 p68) (or (not p81) (not p23) (not p20)) (or p17 p33 (not p45)) (or p36 p45 p28) (or (not p6) (not p85) (not p38)) (or p50 p75 p31) (or p84 (not p2) (not p46)) (or (not p52) p89 (not p80)) (or p70 p74 (not p85)) (or (not p37) (not p26) p44) (or p43 (not p30) p3) (or p25 p36 (not p45)) (or (not p6) p63 (not p11)) (or p71 p69 p42) (or p3 (not p15) (not p32)) (or (not p87) p88 p3) (or p15 p60 p69) (or (not p56) (not p45) p20) (or (not p6) (not p6) p56) (or (not p67) (not p13) p71) (or p71 p79 (not p17)) (or p28 (not p74) p59) (or (not p66) (not p57) p46) (or (not p10) p82 p89) (or p51 (not p77) p15) (or p47 p39 (not p16)) (or (not p22) p18 p41) (or p12 p76 p54) (or p39 (not p35) p70) (or p25 p81 (not p12)) (or p38 (not p48) p83) (or p73 p86 p74) (or p24 (not p35) (not p47)) (or p48 p55 p50) (or (not p53) p67 (not p75)) (or (not p66) (not p61) (not p10)) (or p46 p69 (not p76)) (or (not p17) (not p34) (not p30)) (or p23 p80 p25) (or (not p31) p49 p79) (or (not p13) (not p75) p5) (or p78 (not p1) p36) (or p47 (not p60) p69) (or (not p75) (not p87) p81) (or p24 p49 (not p68)) (or (not p43) p22 (not p41)) (or p84 (not p14) (not p54)) (or p82 (not p45) (not p6)) (or (not p4) p36 (not p16)) (or (not p33) p39 (not p72)) (or p67 p41 (not p10)) (or (not p21) p68 (not p38)) (or p48 (not p36) p31) (or p89 p51 (not p65)) (or p52 p83 p55) (or p63 p73 p64) (or p8 (not p16) p58) (or (not p46) (not p37) (not p16)) (or p59 (not p9) p28) (or p7 p28 (not p6)) (or (not p25) p71 (not p43)) (or p85 (not p28) (not p10)) (or (not p74) (not p68) p27) (or (not p12) p81 (not p87)) (or (not p23) p7 (not p36)) (or (not p53) p18 p72) (or p48 p75 (not p41)) (or (not p66) (not p78) p10) (or (not p51) (not p63) (not p54)) (or p48 (not p15) p60) (or (not p53) (not p34) (not p86)) (or p63 p19 p80) (or (not p20) (not p61) p29) (or (not p63) p19 p4) (or (not p18) p62 p31) (or (not p36) p82 p74) (or (not p53) p39 (not p64)) (or p1 (not p32) (not p73)) (or p26 p35 (not p76)) (or (not p45) (not p20) (not p43)) (or (not p49) (not p24) (not p13)) (or (not p0) p66 p7) (or (not p77) p0 p27) (or p3 p9 p20) (or p60 p7 p50) (or p69 (not p79) (not p57)) (or p19 p30 p86) (or (not p4) p69 p38) (or p44 p82 (not p30)) (or p28 p13 p23) (or (not p51) (not p27) p40) (or p85 (not p59) p42) (or (not p22) p66 (not p22)) (or p61 p36 p49) (or p0 (not p40) (not p6)) (or (not p35) p80 (not p22)) (or p44 p24 (not p66)) (or (not p75) (not p10) p11) (or p20 (not p9) p69) (or (not p25) p46 (not p70)) (or p66 p44 (not p36)) (or (not p28) (not p53) p26) (or p76 (not p76) (not p59)) (or p8 (not p61) p83) (or p59 p19 p84) (or (not p7) p40 p84) (or p71 (not p6) p69) (or (not p68) p47 (not p81)) (or p83 p12 p36) (or p59 p22 (not p16)) (or p29 p57 p7) (or (not p28) p19 p70) (or p57 (not p54) (not p42)) (or p52 (not p2) (not p70)) (or p13 p83 p72) (or p22 p60 (not p16)) (or p31 p2 (not p20)) (or (not p23) (not p75) (not p88)) (or (not p48) p62 p76) (or p67 (not p65) p13) (or p26 p6 p47) (or p78 (not p9) p9) (or (not p86) (not p83) p84) (or p65 p26 p34) (or p70 p15 (not p70)) (or (not p53) p24 p38) (or (not p43) (not p45) p0) (or (not p72) (not p41) p53) (or (not p12) (not p33) p56) (or p78 p15 p51) (or (not p88) p8 (not p50)) (or p32 p2 p63) (or p60 p83 (not p43)) (or (not p71) p61 (not p68)) (or p35 p40 (not p29)) (or p64 (not p47) p2) (or (not p75) (not p69) p60) (or (not p1) (not p62) (not p24)) (or (not p76) (not p85) (not p37)) (or p12 p1 p81) (or p2 (not p4) p8) (or p30 p23 (not p46)) (or (not p72) (not p12) p40) (or p52 p40 (not p10)) (or p0 (not p85) p24) (or (not p62) p66 p55) (or (not p6) p87 (not p51)) (or (not p29) (not p37) p30) (or p34 (not p41) (not p55)) (or (not p73) p78 p45) (or p36 (not p11) p32) (or (not p78) (not p26) (not p0)) (or (not p12) (not p21) (not p62)) (or (not p31) p51 p46) (or p84 p48 p53) (or p80 (not p57) (not p40)) (or p57 p32 (not p50)) (or p43 p59 (not p71)) (or (not p46) (not p65) p47) (or p10 (not p39) p17) (or p55 (not p88) p8) (or (not p49) p66 p72) (or (not p63) p74 (not p43)) (or (not p54) p73 p39) (or p71 (not p78) p51) (or p73 p79 p42) (or p39 p70 p75) (or (not p43) (not p20) (not p5)) (or (not p62) (not p27) p17) (or (not p19) (not p66) (not p78)) (or (not p64) p75 (not p60)) (or p69 p25 p74) (or (not p20) p33 p69) (or p65 (not p63) p72) (or p32 (not p64) (not p23)) (or p80 p6 (not p44)) (or p71 (not p86) (not p71)) (or p47 (not p54) (not p72)) (or (not p80) (not p7) p18) (or p8 p32 p75) (or p85 (not p64) p68) (or (not p50) p51 (not p56)) (or (not p75) p1 (not p48)) (or p79 p63 p2) (or (not p35) (not p15) p85) (or p55 (not p11) p53) (or (not p25) (not p21) (not p61)) (or (not p56) (not p71) (not p87)) (or (not p13) p30 (not p25)) (or (not p31) p85 (not p19)) (or (not p39) p50 (not p79)) (or p50 (not p66) (not p55)) (or p51 (not p70) (not p5)) (or (not p47) p87 p4) (or (not p61) (not p70) p50) (or (not p66) (not p48) p62) (or (not p44) p42 p29) (or (not p27) p62 (not p52)) (or (not p78) (not p40) p75) (or (not p83) (not p26) (not p55)) (or p24 p84 (not p23)) (or p13 (not p37) (not p75)) (or p28 p43 (not p60)) (or p80 (not p62) p59) (or (not p41) (not p86) p12) (or (not p27) p47 (not p71)) (or (not p1) p35 p8) (or p82 p23 (not p18)) (or p75 (not p61) p10) (or (not p33) (not p63) (not p71)) (or p85 p10 (not p10)) (or p14 (not p15) (not p1)) (or p6 p24 p59) (or (not p32) p17 (not p38)) (or (not p27) (not p44) p32) (or p88 p57 (not p48)) (or p54 (not p66) (not p14)) (or p45 p72 p10) (or (not p9) p1 p70) (or (not p80) p35 p25) (or (not p18) p52 (not p80)) (or (not p21) (not p61) p65) (or p70 (not p22) p29) (or (not p26) p76 (not p80)) (or p3 (not p52) (not p33)) (or p76 p87 (not p52)) (or (not p53) (not p64) p47) (or (not p25) p49 p58) (or p86 p5 (not p10)) (or p89 (not p27) (not p3)) (or (not p24) (not p70) p57) (or (not p29) (not p39) p60) (or p36 p15 p73) (or (not p60) p69 p73) (or (not p14) (not p65) p35) (or (not p50) p58 p6) (or p23 p44 p84) (or (not p80) (not p56) (not p13)) (or (not p65) (not p7) (not p46)) (or (not p5) (not p81) (not p61)) (or (not p37) (not p38) p73) (or (not p11) (not p14) (not p86)) (or (not p74) p21 p51) (or (not p30) (not p52) p28) (or p88 (not p78) (not p88)) (or (not p39) p61 (not p23)) (or p24 p40 (not p1)) (or (not p6) (not p45) p75) (or p62 (not p10) (not p77)) (or (not p16) p70 p41) (or p72 p66 p46) (or (not p35) p12 p28) (or (not p79) (not p58) (not p5)) (or (not p38) (not p53) (not p20)) (or (not p7) (not p41) p7) (or (not p61) (not p1) (not p61)) (or (not p39) (not p5) p12) (or (not p55) (not p37) p22) (or p82 p19 p32) (or (not p48) p49 (not p17)) (or p35 p74 (not p5)) (or (not p23) (not p81) p72) (or p18 (not p58) (not p1)) (or p37 p10 (not p59)) (or (not p58) p54 (not p56)) (or (not p61) (not p67) (not p26)) (or p15 p54 (not p64)) (or (not p45) (not p12) p49) (or (not p48) (not p37) (not p62)) (or (not p56) (not p75) p33) (or p85 p4 p28) (or (not p87) (not p53) p78) (or (not p20) (not p6) (not p35)) (or (not p0) p38 (not p65)) (or p22 p66 p69) (or p59 p11 p36) (or (not p77) (not p8) p8) (or (not p53) (not p83) (not p8)) (or p63 p62 (not p72)) (or (not p15) (not p40) (not p22)) (or p2 (not p0) p76) (or (not p66) (not p7) p58) (or (not p61) (not p44) (not p24)) (or p76 p31 (not p30)) (or p34 p30 (not p60)) (or p58 (not p66) p57) (or p39 p51 p42) (or (not p51) p8 p75) (or (not p89) p2 (not p1)) (or (not p43) (not p56) (not p72)) (or (not p32) (not p63) p22) (or p31 p1 p73) (or p24 (not p53) p83) (or (not p7) (not p39) (not p40)) (or p47 (not p35) p39) (or (not p79) (not p85) (not p3)) (or (not p63) p71 p30) (or (not p19) (not p45) p71) (or p88 p15 p7) (or p40 p65 (not p4)) (or (not p88) p10 p7) (or (not p57) p7 (not p41)) (or p31 p82 (not p64)) (or p76 (not p59) (not p6)) (or (not p47) (not p83) p16) (or (not p64) (not p52) p42) (or p63 p73 p4) (or (not p74) (not p41) p4) (or (not p68) (not p14) (not p69)) (or p72 (not p8) (not p82)) (or (not p77) (not p39) (not p11)) (or p57 p20 p3) (or (not p33) p7 (not p35)) (or (not p16) (not p43) (not p66)) (or p71 p66 p15) (or (not p84) (not p28) p25) (or p8 p83 p12) (or (not p40) p14 p50) (or p14 (not p56) p59) (or p3 p71 p68) (or (not p72) (not p62) (not p26)) (or p30 (not p86) (not p5)) (or (not p21) (not p89) (not p70)) (or (not p83) p75 (not p57)) (or (not p9) p32 (not p17)) (or p52 p19 (not p1)) (or (not p38) (not p75) p45) (or p17 p25 p3) (or (not p29) p79 (not p29)) (or p15 p31 p54) (or p47 (not p61) (not p77)) (or p16 (not p43) (not p41)) (or (not p16) p77 (not p2)) (or (not p61) p58 (not p44)) (or p63 (not p15) p23) (or (not p5) (not p73) (not p46)) (or p19 p77 (not p66)) (or p71 (not p74) (not p12)) (or (not p52) (not p39) (not p80)) (or (not p89) p0 (not p46)) (or (not p67) p80 p56) (or (not p53) p65 p60) (or (not p72) p57 (not p56)) (or (not p60) (not p11) (not p21)) (or (not p54) p13 p2) (or (not p69) p10 p30) (or p79 (not p13) (not p39)) (or p27 (not p45) p28) (or p31 p14 (not p39)) (or (not p8) p23 p57) (or p51 (not p30) p28) (or p77 p66 (not p29)) (or p78 (not p14) p14) (or p7 (not p62) p3) (or (not p0) (not p16) (not p14)) (or (not p41) (not p62) p79) (or p84 p5 p2) (or p84 p44 (not p60)) (or p74 (not p5) (not p16)) (or (not p47) (not p10) p39) (or (not p9) p52 p4) (or p51 p16 p23) (or p46 p35 p19) (or p52 p53 p75) (or (not p10) (not p45) (not p86)) (or (not p53) p59 (not p57)) (or (not p46) (not p11) (not p86)) (or (not p42) p46 (not p55)) (or (not p11) (not p3) p51) (or p84 p49 (not p29)) (or (not p10) p51 (not p65)) (or p83 (not p20) (not p70)) (or p75 p10 p11) (or p65 p78 (not p35)) (or (not p38) p29 (not p11)) (or (not p88) p72 (not p67)) (or (not p10) (not p24) (not p33)) (or (not p56) p63 (not p27)) (or p73 (not p16) p58) (or p10 p37 p51) (or p73 p49 (not p30)) (or p66 p4 p53) (or p75 p15 p7) (or (not p80) p56 (not p21)) (or (not p24) p5 (not p33)) (or (not p9) (not p86) (not p76)) (or (not p86) (not p35) p56) (or (not p80) (not p59) p23) (or p53 (not p9) p29) (or (not p61) p51 p0) (or p8 p5 p71) (or (not p59) p50 (not p76)) (or p53 (not p69) p72) (or p0 p66 p59) (or p66 (not p82) p12) (or (not p15) p88 p84) (or p69 (not p33) (not p10)) (or p8 (not p15) p5) (or (not p19) (not p80) p9) (or p88 p30 (not p45)) (or (not p68) (not p44) p71) (or (not p71) (not p69) (not p14)) (or (not p35) p62 (not p60)) (or (not p83) p50 p44) (or (not p46) p60 (not p53)) (or (not p38) p80 p11) (or (not p78) (not p2) (not p34)) (or (not p82) (not p54) p26) (or p0 p71 (not p6)) (or (not p15) (not p44) (not p79)) (or p41 p45 (not p85)) (or (not p48) p55 (not p76)) (or (not p79) (not p39) p18) (or (not p87) p85 p53) (or (not p29) p85 p63) (or (not p67) p29 (not p31)) (or p71 (not p76) p75) (or p1 (not p55) p15) (or (not p71) (not p23) p12) (or p32 (not p75) p25) (or p11 (not p16) (not p75)) (or p38 (not p27) (not p70)) (or (not p76) p66 (not p84)) (or (not p30) p11 p82) (or (not p68) (not p6) (not p89)) (or p81 p13 p60) (or (not p40) p55 p79) (or (not p62) p15 p78) (or (not p22) p67 (not p9)) (or p54 p71 p53) (or p66 p58 (not p56)) (or p70 (not p55) p83) (or (not p66) p48 p72) (or (not p82) (not p24) (not p17)) (or p73 (not p44) p23) (or (not p62) p77 (not p40)) (or (not p60) (not p17) p12) (or (not p33) (not p3) (not p21)) (or p45 p36 (not p47)) (or (not p66) (not p23) (not p87)) (or (not p88) (not p9) p73) (or p33 p81 (not p39)))
)
(check-sat)
(get-model)
